c preprocessed version of 1f9m_graph, 109 vertices, 1349 edges
p td 109 1349
107 108
106 108
106 107
105 108
105 107
105 106
104 108
104 107
104 106
104 105
103 108
103 107
103 106
103 105
103 104
102 106
102 105
102 104
102 103
101 108
101 105
101 104
101 103
101 102
100 107
100 105
100 104
100 103
100 102
100 101
99 106
99 104
99 103
99 102
99 101
99 100
98 105
98 102
98 101
98 100
98 99
97 104
97 102
97 101
97 100
97 99
97 98
96 103
96 100
96 99
96 98
96 97
95 102
95 101
95 100
95 99
95 98
95 97
95 96
94 99
94 97
94 96
94 95
93 99
93 98
93 95
93 94
92 102
92 99
92 98
92 95
92 94
92 93
91 106
91 105
91 103
91 102
91 101
91 100
91 99
91 98
91 97
91 96
91 95
91 94
91 93
91 92
90 106
90 102
90 99
90 98
90 95
90 93
90 92
90 91
89 107
89 106
89 105
89 103
89 102
89 101
89 99
89 98
89 95
89 92
89 91
89 90
88 107
88 106
88 105
88 103
88 102
88 91
88 90
88 89
87 106
87 102
87 92
87 90
87 89
87 88
86 106
86 89
86 88
86 87
85 88
85 87
85 86
84 106
84 88
84 86
84 85
83 108
83 107
83 106
83 105
83 103
83 102
83 89
83 88
83 87
83 86
83 85
83 84
82 106
82 103
82 102
82 90
82 89
82 88
82 87
82 86
82 85
82 84
82 83
81 107
81 106
81 105
81 104
81 103
81 102
81 101
81 100
81 99
81 98
81 91
81 90
81 89
81 88
81 87
81 86
81 84
81 83
81 82
80 106
80 103
80 102
80 99
80 92
80 91
80 90
80 89
80 88
80 87
80 86
80 82
80 81
79 106
79 105
79 103
79 102
79 100
79 99
79 98
79 96
79 95
79 94
79 93
79 92
79 91
79 90
79 89
79 88
79 87
79 83
79 82
79 81
79 80
78 102
78 99
78 93
78 92
78 91
78 90
78 89
78 87
78 82
78 81
78 80
78 79
77 103
77 99
77 96
77 95
77 94
77 93
77 92
77 91
77 90
77 81
77 80
77 79
77 78
76 94
76 93
76 92
76 90
76 80
76 78
76 77
75 95
75 94
75 93
75 92
75 90
75 78
75 77
75 76
74 93
74 92
74 90
74 80
74 78
74 76
74 75
73 92
73 90
73 87
73 82
73 80
73 79
73 78
73 77
73 76
73 75
73 74
72 92
72 90
72 87
72 80
72 78
72 75
72 74
72 73
71 92
71 90
71 89
71 87
71 86
71 85
71 82
71 81
71 80
71 79
71 78
71 76
71 74
71 73
71 72
70 87
70 85
70 82
70 80
70 73
70 72
70 71
69 74
69 73
69 72
69 71
69 70
68 92
68 90
68 80
68 78
68 76
68 75
68 74
68 73
68 72
68 71
68 70
68 69
67 87
67 82
67 80
67 78
67 73
67 71
67 70
67 69
67 68
66 71
66 70
66 69
66 68
66 67
65 76
65 73
65 70
65 69
65 68
65 67
65 66
64 80
64 78
64 76
64 73
64 71
64 69
64 68
64 67
64 66
64 65
63 67
63 66
63 65
63 64
62 69
62 66
62 65
62 64
62 63
61 76
61 73
61 68
61 65
61 64
61 63
61 62
60 77
60 76
60 64
60 63
60 62
60 61
59 90
59 87
59 82
59 80
59 79
59 78
59 76
59 73
59 71
59 70
59 68
59 67
59 66
59 65
59 64
59 63
59 61
59 60
58 103
58 99
58 94
58 91
58 79
58 77
58 64
58 61
58 60
58 59
57 103
57 87
57 82
57 81
57 80
57 79
57 73
57 71
57 67
57 64
57 59
57 58
56 107
56 106
56 103
56 102
56 100
56 99
56 91
56 81
56 79
56 77
56 59
56 58
56 57
55 106
55 103
55 83
55 82
55 81
55 80
55 59
55 58
55 57
55 56
54 108
54 107
54 106
54 105
54 104
54 103
54 102
54 100
54 99
54 91
54 89
54 88
54 83
54 82
54 81
54 79
54 58
54 57
54 56
54 55
53 108
53 107
53 106
53 104
53 103
53 83
53 81
53 56
53 55
53 54
52 107
52 103
52 55
52 54
52 53
51 108
51 107
51 106
51 104
51 103
51 102
51 100
51 99
51 96
51 83
51 81
51 79
51 56
51 55
51 54
51 53
51 52
50 107
50 104
50 103
50 100
50 99
50 96
50 56
50 54
50 53
50 52
50 51
49 56
49 52
49 51
49 50
48 103
48 99
48 81
48 79
48 77
48 58
48 57
48 56
48 55
48 54
48 52
48 51
48 50
48 49
47 107
47 106
47 104
47 103
47 102
47 100
47 99
47 97
47 96
47 94
47 91
47 81
47 79
47 77
47 58
47 56
47 55
47 54
47 53
47 51
47 50
47 49
47 48
46 100
46 99
46 96
46 51
46 50
46 49
46 48
46 47
45 58
45 56
45 49
45 48
45 47
45 46
44 106
44 103
44 102
44 100
44 99
44 96
44 95
44 94
44 91
44 81
44 79
44 78
44 77
44 60
44 59
44 58
44 57
44 56
44 55
44 54
44 51
44 48
44 47
44 46
44 45
43 103
43 100
43 99
43 97
43 96
43 95
43 94
43 91
43 79
43 77
43 56
43 51
43 50
43 47
43 46
43 45
43 44
42 96
42 94
42 49
42 47
42 46
42 45
42 44
42 43
41 96
41 94
41 79
41 77
41 60
41 58
41 56
41 48
41 45
41 44
41 43
41 42
40 103
40 102
40 100
40 99
40 98
40 96
40 95
40 94
40 93
40 91
40 81
40 79
40 78
40 77
40 76
40 73
40 58
40 56
40 48
40 47
40 46
40 45
40 44
40 43
40 42
40 41
39 96
39 94
39 93
39 77
39 44
39 43
39 42
39 41
39 40
38 94
38 77
38 60
38 58
38 45
38 44
38 42
38 41
38 40
38 39
37 99
37 96
37 95
37 94
37 93
37 92
37 79
37 77
37 76
37 75
37 44
37 43
37 40
37 39
37 38
36 94
36 93
36 39
36 38
36 37
35 76
35 61
35 60
35 38
35 36
34 76
34 64
34 63
34 62
34 61
34 60
34 58
34 41
34 38
34 35
33 78
33 77
33 76
33 75
33 74
33 73
33 68
33 65
33 62
33 61
33 60
33 58
33 38
33 37
33 36
33 35
33 34
32 99
32 94
32 79
32 78
32 77
32 76
32 73
32 71
32 61
32 60
32 59
32 58
32 57
32 56
32 48
32 45
32 44
32 43
32 41
32 40
32 38
32 37
32 34
32 33
31 92
31 90
31 87
31 82
31 80
31 79
31 78
31 77
31 76
31 75
31 74
31 73
31 72
31 71
31 70
31 69
31 68
31 67
31 64
31 60
31 59
31 58
31 57
31 56
31 44
31 40
31 33
31 32
30 106
30 103
30 102
30 99
30 96
30 94
30 93
30 91
30 82
30 81
30 80
30 79
30 78
30 77
30 76
30 73
30 71
30 60
30 59
30 58
30 57
30 56
30 55
30 54
30 51
30 48
30 47
30 45
30 44
30 43
30 41
30 40
30 38
30 37
30 33
30 32
30 31
29 106
29 103
29 102
29 99
29 90
29 87
29 83
29 82
29 81
29 80
29 79
29 78
29 77
29 76
29 73
29 71
29 70
29 68
29 67
29 64
29 60
29 59
29 58
29 57
29 56
29 55
29 54
29 48
29 44
29 32
29 31
29 30
28 107
28 106
28 105
28 104
28 103
28 102
28 100
28 99
28 96
28 91
28 90
28 89
28 88
28 83
28 82
28 81
28 80
28 79
28 78
28 77
28 71
28 59
28 58
28 57
28 56
28 55
28 54
28 53
28 51
28 50
28 48
28 47
28 44
28 43
28 41
28 40
28 32
28 31
28 30
28 29
27 106
27 103
27 87
27 86
27 85
27 84
27 83
27 82
27 81
27 80
27 79
27 71
27 67
27 59
27 58
27 57
27 56
27 55
27 54
27 51
27 48
27 44
27 31
27 30
27 29
27 28
26 107
26 106
26 105
26 104
26 103
26 102
26 99
26 91
26 89
26 88
26 87
26 86
26 84
26 83
26 82
26 81
26 80
26 79
26 57
26 56
26 55
26 54
26 53
26 51
26 48
26 47
26 44
26 30
26 29
26 28
26 27
25 107
25 106
25 103
25 83
25 82
25 81
25 57
25 55
25 54
25 53
25 52
25 51
25 28
25 27
25 26
24 107
24 106
24 88
24 85
24 84
24 83
24 55
24 53
24 27
24 26
24 25
23 85
23 84
23 83
23 55
23 27
23 25
23 24
22 107
22 106
22 103
22 85
22 84
22 83
22 82
22 81
22 80
22 59
22 57
22 56
22 55
22 54
22 53
22 51
22 29
22 28
22 27
22 26
22 25
22 24
22 23
21 85
21 57
21 55
21 27
21 25
21 23
21 22
20 86
20 85
20 84
20 82
20 27
20 23
20 22
20 21
19 106
19 88
19 87
19 86
19 85
19 84
19 83
19 82
19 81
19 80
19 71
19 70
19 67
19 64
19 59
19 57
19 55
19 54
19 31
19 29
19 28
19 27
19 26
19 25
19 22
19 21
19 20
18 85
18 82
18 80
18 67
18 59
18 58
18 57
18 56
18 55
18 54
18 29
18 28
18 27
18 25
18 22
18 21
18 20
18 19
17 85
17 67
17 57
17 55
17 21
17 20
17 19
17 18
16 87
16 86
16 85
16 82
16 80
16 71
16 70
16 67
16 66
16 59
16 57
16 29
16 27
16 21
16 20
16 19
16 18
16 17
15 90
15 87
15 85
15 82
15 80
15 78
15 73
15 71
15 70
15 68
15 67
15 66
15 64
15 63
15 60
15 59
15 58
15 57
15 55
15 31
15 30
15 29
15 28
15 27
15 22
15 20
15 19
15 18
15 17
15 16
14 67
14 64
14 63
14 59
14 57
14 55
14 29
14 21
14 18
14 17
14 16
14 15
13 67
13 66
13 64
13 63
13 18
13 17
13 16
13 15
13 14
12 71
12 70
12 68
12 67
12 66
12 65
12 64
12 63
12 62
12 61
12 60
12 59
12 16
12 15
12 14
12 13
11 67
11 64
11 63
11 61
11 60
11 59
11 58
11 57
11 34
11 32
11 29
11 18
11 17
11 15
11 14
11 13
11 12
10 87
10 82
10 80
10 78
10 73
10 71
10 68
10 67
10 64
10 60
10 59
10 58
10 57
10 56
10 55
10 44
10 31
10 30
10 29
10 28
10 27
10 22
10 21
10 19
10 18
10 17
10 16
10 15
10 14
10 13
10 12
10 11
9 64
9 63
9 61
9 60
9 59
9 58
9 57
9 56
9 48
9 45
9 44
9 41
9 34
9 32
9 30
9 29
9 18
9 15
9 14
9 13
9 11
9 10
8 59
8 58
8 57
8 56
8 55
8 48
8 45
8 44
8 29
8 27
8 22
8 21
8 19
8 18
8 17
8 15
8 14
8 13
8 11
8 10
8 9
7 103
7 99
7 81
7 79
7 77
7 60
7 59
7 58
7 57
7 56
7 55
7 54
7 51
7 49
7 48
7 47
7 45
7 44
7 42
7 41
7 40
7 32
7 31
7 30
7 29
7 28
7 27
7 18
7 15
7 10
7 9
7 8
6 58
6 57
6 56
6 55
6 52
6 49
6 48
6 45
6 44
6 18
6 10
6 9
6 8
6 7
5 56
5 55
5 53
5 52
5 51
5 50
5 49
5 48
5 45
5 8
5 7
5 6
4 57
4 56
4 55
4 54
4 53
4 52
4 51
4 48
4 28
4 27
4 26
4 25
4 23
4 22
4 21
4 18
4 8
4 6
4 5
3 57
3 56
3 55
3 54
3 29
3 27
3 25
3 23
3 22
3 21
3 19
3 18
3 17
3 15
3 14
3 10
3 9
3 8
3 7
3 6
3 5
3 4
2 55
2 53
2 52
2 25
2 18
2 8
2 6
2 5
2 4
2 3
1 21
1 18
1 8
1 6
1 3
1 2
0 55
0 23
0 21
0 18
0 17
0 4
0 3
0 2
0 1
